qbf_easy_train/easy_5548_SAT.qdimacs
p cnf 25 65
a 8 1 23 0
e 2 3 4 5 6 7 9 10 11 12 13 14 15 16 17 18 19 20 21 22 24 25 0
-1 2 -3 0
1 -2 -3 0
-1 -2 3 0
1 2 3 0
5 3 0
5 -4 0
-3 4 -5 0
-3 -7 -8 0
3 7 -8 0
-3 7 8 0
3 -7 8 0
-6 8 -9 0
6 -8 -9 0
-6 -8 9 0
6 8 9 0
-10 -5 0
-10 9 0
5 -9 10 0
-12 11 0
-12 1 0
-11 -1 12 0
1 2 -13 0
-1 -2 -13 0
1 -2 13 0
-1 2 13 0
14 12 0
14 13 0
-12 -13 -14 0
6 -1 -15 0
-6 1 -15 0
6 1 15 0
-6 -1 15 0
14 -15 -16 0
-14 15 -16 0
14 15 16 0
-14 -15 16 0
17 -6 0
17 2 0
6 -2 -17 0
-18 -6 0
-18 7 0
6 -7 18 0
-19 -17 0
-19 -18 0
17 18 19 0
-22 20 0
-22 -21 0
-20 21 22 0
-23 -19 0
-23 -22 0
19 22 23 0
24 16 0
24 -23 0
-16 23 -24 0
-10 -24 -25 0
10 24 -25 0
-10 24 25 0
10 -24 25 0
14 -2 -22 3 -8 0
4 -3 16 -14 1 0
-3 -14 10 -9 -13 24 22 15 0
24 -21 -16 9 3 12 8 0
-21 -17 -1 -2 8 -14 11 10 0
-8 -24 -15 -21 14 0
25 0
