sat_easy_train/easy_5548_SAT.dimacs
p cnf 115 377
1 -2 -3 0
-1 2 -3 0
1 2 3 0
-1 -2 3 0
6 4 0
6 5 0
-4 -5 -6 0
6 7 -8 0
-6 -7 -8 0
6 -7 8 0
-6 7 8 0
-9 3 0
-9 -8 0
-3 8 9 0
-11 -2 0
-11 10 0
2 -10 11 0
-13 11 0
-13 12 0
-11 -12 13 0
14 -1 0
14 5 0
1 -5 -14 0
15 14 0
15 -4 0
-14 4 -15 0
10 -15 -16 0
-10 15 -16 0
10 15 16 0
-10 -15 16 0
17 -13 0
17 16 0
13 -16 -17 0
-19 18 0
-19 3 0
-18 -3 19 0
-22 4 0
-22 21 0
-4 -21 22 0
20 -22 -23 0
-20 22 -23 0
20 22 23 0
-20 -22 23 0
24 -7 0
24 23 0
7 -23 -24 0
-25 7 0
-25 -4 0
-7 4 25 0
-26 -24 0
-26 -25 0
24 25 26 0
-19 -26 -27 0
19 26 -27 0
-19 26 27 0
19 -26 27 0
-28 17 0
-28 -27 0
-17 27 28 0
-29 -2 0
-29 -4 0
2 4 29 0
-31 -29 0
-31 30 0
29 -30 31 0
32 31 0
32 -20 0
-31 20 -32 0
-33 -7 0
-33 -13 0
7 13 33 0
-34 -32 0
-34 -33 0
32 33 34 0
-19 -10 -35 0
19 10 -35 0
-19 10 35 0
19 -10 35 0
-36 34 0
-36 -35 0
-34 35 36 0
-37 -28 0
-37 36 0
28 -36 37 0
-38 -9 0
-38 -37 0
9 37 38 0
39 -5 0
39 -20 0
5 20 -39 0
-7 -4 -40 0
7 4 -40 0
-7 4 40 0
7 -4 40 0
41 39 0
41 40 0
-39 -40 -41 0
29 -21 -43 0
-29 21 -43 0
29 21 43 0
-29 -21 43 0
42 43 -44 0
-42 -43 -44 0
42 -43 44 0
-42 43 44 0
-45 -44 0
-45 10 0
44 -10 45 0
-22 -20 -46 0
22 20 -46 0
-22 20 46 0
22 -20 46 0
-47 -3 0
-47 -10 0
3 10 47 0
-48 46 0
-48 47 0
-46 -47 48 0
-45 -48 -49 0
45 48 -49 0
-45 48 49 0
45 -48 49 0
50 5 0
50 23 0
-5 -23 -50 0
11 -3 -51 0
-11 3 -51 0
11 3 51 0
-11 -3 51 0
52 50 0
52 -51 0
-50 51 -52 0
12 25 -54 0
-12 -25 -54 0
12 -25 54 0
-12 25 54 0
-55 -5 0
-55 21 0
5 -21 55 0
55 -56 -57 0
-55 56 -57 0
55 56 57 0
-55 -56 57 0
-58 54 0
-58 57 0
-54 -57 58 0
58 33 -59 0
-58 -33 -59 0
58 -33 59 0
-58 33 59 0
-60 26 0
-60 13 0
-26 -13 60 0
61 59 0
61 60 0
-59 -60 -61 0
53 -61 -62 0
-53 61 -62 0
53 61 62 0
-53 -61 62 0
-63 -18 0
-63 4 0
18 -4 63 0
-64 63 0
-64 30 0
-63 -30 64 0
-65 -29 0
-65 8 0
29 -8 65 0
66 -30 0
66 -25 0
30 25 -66 0
-67 -12 0
-67 66 0
12 -66 67 0
68 -65 0
68 -67 0
65 67 -68 0
69 64 0
69 -68 0
-64 68 -69 0
-1 -58 -70 0
1 58 -70 0
-1 58 70 0
1 -58 70 0
-71 2 0
-71 -70 0
-2 70 71 0
-72 -4 0
-72 13 0
4 -13 72 0
73 71 0
73 -72 0
-71 72 -73 0
69 73 -74 0
-69 -73 -74 0
69 -73 74 0
-69 73 74 0
-75 -16 0
-75 24 0
16 -24 75 0
76 3 0
76 -75 0
-3 75 -76 0
-77 15 0
-77 -76 0
-15 76 77 0
78 -74 0
78 -77 0
74 77 -78 0
62 -78 -79 0
-62 78 -79 0
62 78 79 0
-62 -78 79 0
52 79 -80 0
-52 -79 -80 0
52 -79 80 0
-52 79 80 0
81 -49 0
81 80 0
49 -80 -81 0
82 41 0
82 81 0
-41 -81 -82 0
83 -20 0
83 23 0
20 -23 -83 0
13 29 -84 0
-13 -29 -84 0
13 -29 84 0
-13 29 84 0
-1 20 -85 0
1 -20 -85 0
-1 -20 85 0
1 20 85 0
-86 -19 0
-86 -85 0
19 85 86 0
87 86 0
87 2 0
-86 -2 -87 0
88 -84 0
88 -87 0
84 87 -88 0
3 20 -89 0
-3 -20 -89 0
3 -20 89 0
-3 20 89 0
-5 -89 -90 0
5 89 -90 0
-5 89 90 0
5 -89 90 0
-91 -90 0
-91 -12 0
90 12 91 0
-93 -91 0
-93 92 0
91 -92 93 0
94 -88 0
94 93 0
88 -93 -94 0
95 83 0
95 -94 0
-83 94 -95 0
43 96 0
-43 96 0
-97 89 -98 0
97 -89 -98 0
-97 -89 98 0
97 89 98 0
99 98 0
99 -75 0
-98 75 -99 0
-7 -18 -100 0
7 18 -100 0
-7 18 100 0
7 -18 100 0
101 -10 0
101 -25 0
10 25 -101 0
-102 101 0
-102 85 0
-101 -85 102 0
103 100 0
103 -102 0
-100 102 -103 0
75 21 -104 0
-75 -21 -104 0
75 -21 104 0
-75 21 104 0
105 103 0
105 -104 0
-103 104 -105 0
106 29 0
106 -85 0
-29 85 -106 0
107 106 0
107 -22 0
-106 22 -107 0
-105 107 -108 0
105 -107 -108 0
-105 -107 108 0
105 107 108 0
-99 108 -109 0
99 -108 -109 0
-99 -108 109 0
99 108 109 0
-110 -96 0
-110 -109 0
96 109 110 0
111 -56 0
111 -16 0
56 16 -111 0
112 -110 0
112 111 0
110 -111 -112 0
113 95 0
113 112 0
-95 -112 -113 0
-82 -113 -114 0
82 113 -114 0
-82 113 114 0
82 -113 114 0
38 -114 -115 0
-38 114 -115 0
38 114 115 0
-38 -114 115 0
-7 -111 37 107 -40 0
58 111 -20 -34 0
97 52 -6 115 68 0
9 18 103 67 24 -108 0
90 -24 98 43 0
62 43 -66 0
-2 -103 94 0
-14 -39 -79 0
22 -69 0
-88 92 85 76 0
-9 -58 -100 -13 77 -36 0
44 88 -3 -105 0
31 71 2 -80 0
111 90 39 0
-10 -23 22 0
-99 53 106 1 0
59 -56 0
-45 -67 0
113 -40 12 7 0
-66 40 -97 -105 0
106 -96 0
67 25 70 -65 19 0
54 -38 -91 90 99 49 0
102 -18 63 95 0
-26 47 -20 0
75 -93 -21 36 25 0
-83 97 22 43 -112 0
30 73 0
86 49 -45 -25 0
-45 24 -110 -76 0
-6 1 -22 0
-112 88 11 70 85 0
51 46 76 0
-44 46 5 -102 0
65 23 -88 114 0
-62 -86 0
-20 -21 -34 0
9 80 47 0
96 34 16 -108 -41 89 0
81 -19 0
82 -42 109 -97 91 67 0
89 -49 39 107 -103 0
-80 -62 0
-107 -19 43 -115 0
-53 -96 -42 79 75 10 0
-100 -43 48 -53 36 19 0
-72 106 0
50 60 112 41 0
-39 -90 70 -11 -66 0
115 0
